%chk=mod.chk
# sp mp2/6-31g

Title Card Required

0 1
